5
75
236
40	24
1	3	19	3	8	3	7	2	
2	3	6	4	13	3	17	2	
3	2	5	6	13	2	
4	2	7	4	4	2	
5	2	8	4	6	4	
6	3	22	3	9	2	6	2	
7	2	14	3	6	3	
8	5	7	7	23	3	17	3	8	2	6	2	
9	4	11	6	5	6	4	4	22	2	
10	2	5	11	22	3	
11	4	8	6	6	5	7	4	11	3	
12	4	11	6	9	4	12	3	11	2	
13	2	10	4	5	3	
14	4	8	12	7	6	10	3	5	3	
15	5	7	7	6	6	10	5	12	4	18	3	
16	2	8	4	5	4	
17	1	4	4	
18	3	8	10	7	8	21	4	
19	2	6	5	12	3	
20	5	7	10	4	10	7	6	12	5	8	3	
21	5	21	4	17	4	5	4	16	3	6	2	
22	2	10	3	4	2	
23	2	7	3	21	2	
24	5	6	6	11	4	8	4	5	4	20	3	
25	1	9	3	
26	2	9	6	9	3	
27	2	8	9	7	4	
28	4	7	5	24	3	20	3	17	3	
29	5	7	8	6	7	9	4	22	3	7	3	
30	3	5	11	17	2	11	2	
31	3	22	4	6	4	16	2	
32	5	6	8	14	4	10	4	11	3	5	3	
33	2	4	10	5	8	
34	4	7	11	5	4	6	3	6	3	
35	2	11	5	5	4	
36	2	11	3	4	3	
37	5	6	9	5	9	6	6	10	5	6	4	
38	1	8	4	
39	3	8	4	11	3	18	2	
40	5	6	9	5	6	9	5	6	5	22	4	
41	2	6	9	12	3	
42	3	8	8	19	3	17	3	
43	4	4	10	5	8	13	3	9	3	
44	5	7	10	6	7	9	4	18	2	8	2	
45	5	6	7	6	7	6	4	18	2	14	2	
46	4	7	5	6	5	6	4	8	2	
47	3	5	8	7	5	11	3	
48	4	5	9	7	8	16	3	6	2	
49	4	5	6	5	4	5	4	4	3	
50	1	8	6	
51	1	19	3	
52	2	5	5	12	2	
53	4	6	6	4	6	5	5	12	4	
54	5	9	5	10	4	6	4	16	3	9	3	
55	4	4	9	12	5	17	3	6	3	
56	3	6	12	5	5	23	2	
57	1	5	4	
58	3	5	4	13	3	6	2	
59	5	4	7	5	5	21	4	5	4	9	3	
60	5	8	5	13	4	5	4	5	4	9	3	
61	3	7	9	14	3	14	2	
62	2	6	7	7	6	
63	3	4	4	20	3	7	3	
64	4	7	5	8	4	11	3	18	2	
65	1	8	11	
66	1	4	6	
67	5	6	11	24	4	6	4	15	3	5	3	
68	3	6	8	8	3	16	2	
69	4	4	11	7	9	6	8	9	2	
70	1	4	3	
71	5	6	7	7	6	20	4	7	3	4	3	
72	2	6	6	6	4	
73	5	8	4	13	3	10	3	6	3	8	2	
74	2	6	8	4	4	
75	4	6	9	10	5	10	4	5	2	
